! RI-MP2 def2-TZVP def2-TZVP/C TightSCF

%pal nprocs 192 end

%maxcore 3500

%mp2 natorbs true
end

*xyz 0 1
  C          -4.27618844408315     -1.58032440396899      0.00005070070495
  C          -3.34005683321128     -0.59584132236662      0.00006444386820
  C          -1.95210407783235     -0.77060865717285      0.00003831960105
  C          -3.86217366608977     -2.94329564853906      0.00000509552673
  C          -2.51634948899400     -3.21163359254876     -0.00000919099687
  C          -1.58244046595247     -2.14469616532146      0.00000031880442
  C          -0.83919744716565      0.07696362908260      0.00003881218711
  C           0.46452064090405     -0.30493582728661      0.00000531002164
  C          -0.23926938339869     -2.59903461086858     -0.00003638832891
  C           0.79025094019273     -1.69165677621172     -0.00003787855029
  H          -1.81673421307623     -3.84435222983868     -0.00004321961644
  H          -0.24242044715056     -3.66653818011380     -0.00004337035361
  H           1.25868166028411      0.43175218286707      0.00001039634415
  H           1.82449823089166     -2.01050257282053     -0.00005871686593
  H          -4.59682353508089     -3.73804232947048     -0.00001526730299
  H          -5.33277629951192     -1.34153120324475      0.00005835312942
*
